# Objective value = 3.0094849792551065e+02
x[0] 1
x[1] 1
x[2] 0
x[3] 1
x[4] 1
x[5] 1
x[6] 0
x[7] 0
x[8] 1
x[9] 1
x[10] 1
x[11] 1
x[12] 1
x[13] 0
x[14] 0
x[15] 0
x[16] 1
x[17] 1
x[18] 0
x[19] 0
x[20] 0
x[21] 0
x[22] 0
x[23] 0
x[24] 0
x[25] 1
x[26] 0
x[27] 0
x[28] 1
x[29] 0
x[30] 1
x[31] 0
x[32] 0
x[33] 0
x[34] 1
x[35] 0
x[36] 1
x[37] 1
x[38] 0
x[39] 0
x[40] 0
x[41] 1
x[42] 0
x[43] 0
x[44] 0
x[45] 1
x[46] 1
x[47] 1
x[48] 1
x[49] 0
x[50] 0
x[51] 1
x[52] 1
x[53] 0
x[54] 1
x[55] 1
x[56] 1
x[57] 1
x[58] 0
x[59] 0
x[60] 0
x[61] 0
x[62] 1
x[63] 1
x[64] 1
x[65] 1
x[66] 0
x[67] 0
x[68] 1
x[69] 0
x[70] 1
x[71] 1
x[72] 1
x[73] 0
x[74] 0
x[75] 1
x[76] 1
x[77] 1
x[78] 0
x[79] 0
x[80] 0
x[81] 0
x[82] 1
x[83] 1
x[84] 1
x[85] 0
x[86] 0
x[87] 0
x[88] 0
x[89] 1
x[90] 1
x[91] 0
x[92] 1
x[93] 1
x[94] 0
x[95] 1
x[96] 1
x[97] 1
x[98] 1
x[99] 1
x[100] 0
x[101] 0
x[102] 0
x[103] 1
x[104] 0
x[105] 0
x[106] 1
x[107] 1
x[108] 0
x[109] 0
x[110] 1
x[111] 0
x[112] 1
x[113] 0
x[114] 0
x[115] 1
x[116] 0
x[117] 0
x[118] 0
x[119] 1
x[120] 0
x[121] 1
x[122] 0
x[123] 1
x[124] 1
x[125] 1
x[126] 1
x[127] 0
x[128] 0
x[129] 1
x[130] 1
x[131] 1
x[132] 0
x[133] 1
x[134] 1
x[135] 0
x[136] 0
x[137] 1
x[138] 1
x[139] 0
x[140] 0
x[141] 1
x[142] 1
x[143] 1
x[144] 0
x[145] 1
x[146] 1
x[147] 0
x[148] 0
x[149] 1
x[150] 1
x[151] 1
x[152] 0
x[153] 1
x[154] 0
x[155] 1
x[156] 1
x[157] 1
x[158] 1
x[159] 1
x[160] 0
x[161] 0
x[162] 0
x[163] 0
x[164] 1
x[165] 0
x[166] 0
x[167] 0
x[168] 1
x[169] 0
x[170] 0
x[171] 1
x[172] 1
x[173] 0
x[174] 1
x[175] 0
x[176] 1
x[177] 1
x[178] 1
x[179] 0
x[180] 1
x[181] 0
x[182] 0
x[183] 0
x[184] 1
x[185] 1
x[186] 1
x[187] 1
x[188] 0
x[189] 0
x[190] 0
x[191] 0
x[192] 0
x[193] 0
x[194] 1
x[195] 0
x[196] 0
x[197] 1
x[198] 0
x[199] 1
x[200] 1
x[201] 1
x[202] 1
x[203] 1
x[204] 1
x[205] 0
x[206] 1
x[207] 1
x[208] 0
x[209] 0
x[210] 0
x[211] 0
x[212] 0
x[213] 1
x[214] 0
x[215] 0
x[216] 1
x[217] 1
x[218] 1
x[219] 0
x[220] 0
x[221] 1
x[222] 1
x[223] 1
x[224] 0
x[225] 1
x[226] 0
x[227] 0
x[228] 0
x[229] 0
x[230] 1
x[231] 1
x[232] 0
x[233] 0
x[234] 1
x[235] 0
x[236] 1
x[237] 1
x[238] 1
x[239] 1
x[240] 1
x[241] 1
x[242] 0
x[243] 1
x[244] 1
x[245] 0
x[246] 0
x[247] 0
x[248] 0
x[249] 1
x[250] 1
x[251] 0
x[252] 1
x[253] 0
x[254] 1
x[255] 0
x[256] 0
x[257] 1
x[258] 0
x[259] 1
x[260] 0
x[261] 0
x[262] 1
x[263] 0
x[264] 0
x[265] 1
x[266] 1
x[267] 1
x[268] 0
x[269] 1
x[270] 1
x[271] 0
x[272] 1
x[273] 1
x[274] 0
x[275] 1
x[276] 0
x[277] 0
x[278] 1
x[279] 1
x[280] 0
x[281] 1
x[282] 0
x[283] 0
x[284] 0
x[285] 1
x[286] 0
x[287] 1
x[288] 1
x[289] 1
x[290] 1
x[291] 0
x[292] 0
x[293] 0
x[294] 1
x[295] 0
x[296] 1
x[297] 1
x[298] 0
x[299] 0
x[300] 0
x[301] 0
x[302] 1
x[303] 1
x[304] 0
x[305] 1
x[306] 0
x[307] 1
x[308] 1
x[309] 1
x[310] 0
x[311] 1
x[312] 1
x[313] 0
x[314] 1
x[315] 1
x[316] 1
x[317] 1
x[318] 1
x[319] 0
x[320] 1
x[321] 0
x[322] 0
x[323] 0
x[324] 0
x[325] 1
x[326] 1
x[327] 0
x[328] 0
x[329] 0
x[330] 1
x[331] 1
x[332] 1
x[333] 1
x[334] 1
x[335] 1
x[336] 1
x[337] 0
x[338] 0
x[339] 1
x[340] 1
x[341] 0
x[342] 1
x[343] 0
x[344] 1
x[345] 0
x[346] 1
x[347] 0
x[348] 1
x[349] 0
x[350] 1
x[351] 0
x[352] 0
x[353] 0
x[354] 1
x[355] 1
x[356] 0
x[357] 1
x[358] 1
x[359] 1
x[360] 0
x[361] 1
x[362] 1
x[363] 1
x[364] 1
x[365] 0
x[366] 1
x[367] 0
x[368] 0
x[369] 0
x[370] 1
x[371] 0
x[372] 1
x[373] 1
x[374] 1
x[375] 0
x[376] 0
x[377] 0
x[378] 0
x[379] 1
x[380] 1
x[381] 0
x[382] 0
x[383] 0
x[384] 0
x[385] 0
x[386] 0
x[387] 0
x[388] 0
x[389] 1
x[390] 0
x[391] 1
x[392] 0
x[393] 0
x[394] 1
x[395] 1
x[396] 0
x[397] 1
x[398] 1
x[399] 0
x[400] 1
x[401] 0
x[402] 0
x[403] 1
x[404] 0
x[405] 0
x[406] 1
x[407] 0
x[408] 0
x[409] 0
x[410] 0
x[411] 1
x[412] 1
x[413] 1
x[414] 1
x[415] 1
x[416] 0
x[417] 1
x[418] 0
x[419] 0
x[420] 0
x[421] 0
x[422] 1
x[423] 1
x[424] 0
x[425] 0
x[426] 0
x[427] 0
x[428] 1
x[429] 1
x[430] 0
x[431] 1
x[432] 1
x[433] 1
x[434] 0
x[435] 1
x[436] 1
x[437] 0
x[438] 0
x[439] 0
x[440] 0
x[441] 0
x[442] 1
x[443] 1
x[444] 0
x[445] 1
x[446] 1
x[447] 0
x[448] 1
x[449] 1
x[450] 1
x[451] 0
x[452] 0
x[453] 1
x[454] 1
x[455] 0
x[456] 1
x[457] 1
x[458] 0
x[459] 1
x[460] 0
x[461] 1
x[462] 0
x[463] 0
x[464] 0
x[465] 0
x[466] 1
x[467] 0
x[468] 1
x[469] 1
x[470] 0
x[471] 0
x[472] 1
x[473] 0
x[474] 1
x[475] 0
x[476] 0
x[477] 0
x[478] 0
x[479] 0
x[480] 0
x[481] 0
x[482] 1
x[483] 0
x[484] 0
x[485] 1
x[486] 1
x[487] 0
x[488] 1
x[489] 1
x[490] 0
x[491] 1
x[492] 0
x[493] 1
x[494] 0
x[495] 0
x[496] 0
x[497] 0
x[498] 1
x[499] 1
x[500] 1
x[501] 1
x[502] 1
x[503] 1
x[504] 0
x[505] 0
x[506] 0
x[507] 1
x[508] 1
x[509] 0
x[510] 0
x[511] 0
x[512] 0
x[513] 0
x[514] 1
x[515] 1
x[516] 0
x[517] 0
x[518] 0
x[519] 0
x[520] 1
x[521] 0
x[522] 1
x[523] 0
x[524] 0
x[525] 0
x[526] 0
x[527] 1
x[528] 0
x[529] 0
x[530] 0
x[531] 0
x[532] 0
x[533] 1
x[534] 1
x[535] 0
x[536] 0
x[537] 1
x[538] 0
x[539] 1
x[540] 1
x[541] 0
x[542] 1
x[543] 0
x[544] 1
x[545] 0
x[546] 1
x[547] 0
x[548] 1
x[549] 1
x[550] 0
x[551] 0
x[552] 1
x[553] 0
x[554] 0
x[555] 0
x[556] 1
x[557] 1
x[558] 0
x[559] 1
x[560] 0
x[561] 1
x[562] 0
x[563] 0
x[564] 1
x[565] 1
x[566] 0
x[567] 0
x[568] 1
x[569] 0
x[570] 0
x[571] 0
x[572] 0
x[573] 1
x[574] 1
x[575] 1
x[576] 0
x[577] 1
x[578] 0
x[579] 1
x[580] 0
x[581] 1
x[582] 0
x[583] 0
x[584] 1
x[585] 0
x[586] 1
x[587] 1
x[588] 1
x[589] 1
x[590] 0
x[591] 0
x[592] 0
x[593] 1
x[594] 1
x[595] 0
x[596] 1
x[597] 1
x[598] 1
x[599] 0
x[600] 0
x[601] 1
x[602] 1
x[603] 0
x[604] 1
x[605] 0
x[606] 0
x[607] 0
x[608] 1
x[609] 1
x[610] 0
x[611] 1
x[612] 0
x[613] 1
x[614] 0
x[615] 1
x[616] 0
x[617] 0
x[618] 0
x[619] 0
x[620] 0
x[621] 1
x[622] 0
x[623] 0
x[624] 1
x[625] 0
x[626] 0
x[627] 0
x[628] 0
x[629] 1
x[630] 0
x[631] 0
x[632] 1
x[633] 0
x[634] 0
x[635] 0
x[636] 0
x[637] 0
x[638] 1
x[639] 1
x[640] 1
x[641] 0
x[642] 1
x[643] 1
x[644] 1
x[645] 0
x[646] 1
x[647] 1
x[648] 0
x[649] 0
x[650] 1
x[651] 0
x[652] 1
x[653] 0
x[654] 1
x[655] 1
x[656] 1
x[657] 0
x[658] 1
x[659] 1
x[660] 0
x[661] 1
x[662] 0
x[663] 0
x[664] 0
x[665] 1
x[666] 1
x[667] 1
x[668] 0
x[669] 1
x[670] 1
x[671] 0
x[672] 0
x[673] 1
x[674] 0
x[675] 1
x[676] 1
x[677] 0
x[678] 0
x[679] 1
x[680] 1
x[681] 0
x[682] 0
x[683] 1
x[684] 1
x[685] 1
x[686] 0
x[687] 0
x[688] 0
x[689] 1
x[690] 0
x[691] 0
x[692] 1
x[693] 0
x[694] 1
x[695] 1
x[696] 1
x[697] 0
x[698] 0
x[699] 0
x[700] 1
x[701] 1
x[702] 1
x[703] 0
x[704] 0
x[705] 1
x[706] 0
x[707] 1
x[708] 1
x[709] 1
x[710] 0
x[711] 1
x[712] 1
x[713] 1
x[714] 1
x[715] 0
x[716] 0
x[717] 0
x[718] 1
x[719] 0
x[720] 0
x[721] 0
x[722] 0
x[723] 1
x[724] 1
x[725] 0
x[726] 0
x[727] 1
x[728] 0
x[729] 0
x[730] 1
x[731] 1
x[732] 1
x[733] 0
x[734] 1
x[735] 0
x[736] 1
x[737] 0
x[738] 1
x[739] 0
x[740] 1
x[741] 0
x[742] 1
x[743] 0
x[744] 0
x[745] 0
x[746] 1
x[747] 1
x[748] 0
x[749] 1
x[750] 0
x[751] 1
x[752] 1
x[753] 0
x[754] 1
x[755] 1
x[756] 0
x[757] 1
x[758] 1
x[759] 0
x[760] 0
x[761] 0
x[762] 1
x[763] 0
x[764] 0
x[765] 0
x[766] 0
x[767] 0
x[768] 0
x[769] 0
x[770] 1
x[771] 1
x[772] 0
x[773] 0
x[774] 1
x[775] 0
x[776] 0
x[777] 1
x[778] 1
x[779] 1
x[780] 1
x[781] 0
x[782] 0
x[783] 0
x[784] 1
x[785] 1
x[786] 0
x[787] 0
x[788] 0
x[789] 1
x[790] 1
x[791] 0
x[792] 0
x[793] 1
x[794] 0
x[795] 1
x[796] 0
x[797] 1
x[798] 1
x[799] 1
x[800] 1
x[801] 1
x[802] 1
x[803] 1
x[804] 0
x[805] 0
x[806] 0
x[807] 0
x[808] 1
x[809] 1
x[810] 0
x[811] 1
x[812] 1
x[813] 1
x[814] 1
x[815] 1
x[816] 0
x[817] 0
x[818] 1
x[819] 1
x[820] 0
x[821] 0
x[822] 0
x[823] 0
x[824] 0
x[825] 0
x[826] 1
x[827] 0
x[828] 0
x[829] 1
x[830] 0
x[831] 0
x[832] 0
x[833] 0
x[834] 0
x[835] 0
x[836] 0
x[837] 1
x[838] 0
x[839] 0
x[840] 0
x[841] 1
x[842] 0
x[843] 0
x[844] 1
x[845] 1
x[846] 0
x[847] 0
x[848] 0
x[849] 0
x[850] 0
x[851] 0
x[852] 1
x[853] 1
x[854] 0
x[855] 0
x[856] 0
x[857] 1
x[858] 0
x[859] 0
x[860] 0
x[861] 1
x[862] 0
x[863] 0
x[864] 1
x[865] 0
x[866] 0
x[867] 1
x[868] 1
x[869] 0
x[870] 0
x[871] 1
x[872] 0
x[873] 0
x[874] 0
x[875] 1
x[876] 0
x[877] 1
x[878] 1
x[879] 1
x[880] 0
x[881] 1
x[882] 0
x[883] 0
x[884] 1
x[885] 1
x[886] 0
x[887] 1
x[888] 0
x[889] 1
x[890] 1
x[891] 1
x[892] 1
x[893] 1
x[894] 0
x[895] 1
x[896] 0
x[897] 0
x[898] 0
x[899] 0
x[900] 0
x[901] 1
x[902] 0
x[903] 1
x[904] 0
x[905] 1
x[906] 0
x[907] 1
x[908] 0
x[909] 0
x[910] 1
x[911] 0
x[912] 0
x[913] 0
x[914] 0
x[915] 0
x[916] 0
x[917] 1
x[918] 1
x[919] 1
x[920] 1
x[921] 1
x[922] 0
x[923] 1
x[924] 1
x[925] 1
x[926] 1
x[927] 0
x[928] 1
x[929] 1
x[930] 0
x[931] 1
x[932] 0
x[933] 1
x[934] 0
x[935] 0
x[936] 0
x[937] 1
x[938] 0
x[939] 1
x[940] 0
x[941] 1
x[942] 1
x[943] 0
x[944] 1
x[945] 0
x[946] 0
x[947] 1
x[948] 0
x[949] 1
x[950] 1
x[951] 0
x[952] 0
x[953] 1
x[954] 1
x[955] 0
x[956] 1
x[957] 0
x[958] 0
x[959] 1
x[960] 1
x[961] 1
x[962] 0
x[963] 0
x[964] 0
x[965] 0
x[966] 0
x[967] 1
x[968] 1
x[969] 0
x[970] 1
x[971] 0
x[972] 0
x[973] 0
x[974] 0
x[975] 0
x[976] 0
x[977] 0
x[978] 1
x[979] 1
x[980] 0
x[981] 1
x[982] 1
x[983] 1
x[984] 0
x[985] 0
x[986] 0
x[987] 1
x[988] 1
x[989] 0
x[990] 1
x[991] 1
x[992] 1
x[993] 0
x[994] 0
x[995] 0
x[996] 1
x[997] 0
x[998] 0
x[999] 0
